; Copyright (c) 2026 The RIINA Authors. All rights reserved.
; Copyright (c) 2026 The RIINA Authors.
; Auto-generated from 02_FORMAL/coq/Industries/IndustryRetail.v (23 assertions)
; Generated by scripts/generate-full-stack.py
; Module: IndustryRetail

(set-logic ALL)
(set-option :produce-models true)

; ConsumerData (matches Coq: Inductive ConsumerData)
(declare-datatypes ((ConsumerData 0)) (((PII) (PaymentData) (PurchaseHistory) (BrowsingBehavior) (LocationData) (BiometricData))))

; PrivacyRight (matches Coq: Inductive PrivacyRight)
(declare-datatypes ((PrivacyRight 0)) (((RightToKnow) (RightToDelete) (RightToOptOut) (RightToPortability) (RightToCorrection))))

; RetailEffect (matches Coq: Inductive RetailEffect)
(declare-datatypes ((RetailEffect 0)) (((CustomerIO) (PaymentIO) (InventoryUpdate) (OrderProcess) (AnalyticsWrite))))

; EcommerceControls (matches Coq: Record EcommerceControls)
(declare-datatypes ((EcommerceControls 0))
  (((mk-ecommerce_controls (tls_encryption Bool) (secure_authentication Bool) (input_validation Bool) (csrf_protection Bool) (sql_injection_prevention Bool) (xss_prevention Bool) (secure_session Bool) (pci_compliant_payment Bool)))))

; consumer_sensitivity (matches Coq: Definition consumer_sensitivity)
(define-fun consumer_sensitivity ((d ConsumerData)) Int
  true)

; all_rights_count (matches Coq: Definition all_rights_count)
(define-fun all_rights_count () Int 5)

; right_to_nat (matches Coq: Definition right_to_nat)
(define-fun right_to_nat ((r PrivacyRight)) Int
  true)

; all_ecommerce_controls (matches Coq: Definition all_ecommerce_controls)
(define-fun all_ecommerce_controls ((c EcommerceControls)) Bool
  (and (tls_encryption c) (secure_authentication c) (input_validation c) (csrf_protection c) (sql_injection_prevention c) (xss_prevention c) (secure_session c) (pci_compliant_payment c)))

; count_ecommerce_controls (matches Coq: Definition count_ecommerce_controls)
(define-fun count_ecommerce_controls ((c EcommerceControls)) Int
  true)

; retention_expired (matches Coq: Definition retention_expired)
(define-fun retention_expired () Bool Nat)

; session_expired (matches Coq: Definition session_expired)
(define-fun session_expired () Bool Nat)

; order_amount_valid (matches Coq: Definition order_amount_valid)
(define-fun order_amount_valid () Bool Nat)

; inventory_valid (matches Coq: Definition inventory_valid)
(define-fun inventory_valid () Bool Nat)

; ecommerce_pci_compliance (matches Coq: Theorem ecommerce_pci_compliance)
(assert (= true true)) ; ecommerce_pci_compliance [untranslatable]

; ccpa_compliance (matches Coq: Theorem ccpa_compliance)
(assert (= true true)) ; ccpa_compliance [untranslatable]

; gdpr_compliance (matches Coq: Theorem gdpr_compliance)
(assert (= true true)) ; gdpr_compliance [untranslatable]

; owasp_prevention (matches Coq: Theorem owasp_prevention)
(assert (= true true)) ; owasp_prevention [untranslatable]

; soc2_compliance (matches Coq: Theorem soc2_compliance)
(assert (= true true)) ; soc2_compliance [untranslatable]

; tls_required (matches Coq: Theorem tls_required)
(assert (= true true)) ; tls_required [untranslatable]

; csrf_tokens_required (matches Coq: Theorem csrf_tokens_required)
(assert (= true true)) ; csrf_tokens_required [untranslatable]

; payment_biometric_highest (matches Coq: Theorem payment_biometric_highest)
(assert (= (consumer_sensitivity PaymentData) (consumer_sensitivity BiometricData))) ; payment_biometric_highest

; payment_max_sensitivity (matches Coq: Theorem payment_max_sensitivity)
(assert (= true true)) ; payment_max_sensitivity [untranslatable]

; consumer_sensitivity_positive (matches Coq: Theorem consumer_sensitivity_positive)
(assert (= true true)) ; consumer_sensitivity_positive [untranslatable]

; right_to_nat_positive (matches Coq: Theorem right_to_nat_positive)
(assert (= true true)) ; right_to_nat_positive [untranslatable]

; right_to_nat_bounded (matches Coq: Theorem right_to_nat_bounded)
(assert (= true true)) ; right_to_nat_bounded [untranslatable]

; all_ecom_requires_tls (matches Coq: Theorem all_ecom_requires_tls)
(assert (= true true)) ; all_ecom_requires_tls [untranslatable]

; all_ecom_requires_pci (matches Coq: Theorem all_ecom_requires_pci)
(assert (= true true)) ; all_ecom_requires_pci [untranslatable]

; all_ecom_requires_sqli (matches Coq: Theorem all_ecom_requires_sqli)
(assert (= true true)) ; all_ecom_requires_sqli [untranslatable]

; all_ecom_requires_xss (matches Coq: Theorem all_ecom_requires_xss)
(assert (= true true)) ; all_ecom_requires_xss [untranslatable]

; count_ecommerce_bounded (matches Coq: Theorem count_ecommerce_bounded)
(assert (= true true)) ; count_ecommerce_bounded [untranslatable]

; all_controls_count_eight (matches Coq: Theorem all_controls_count_eight)
(assert (= true true)) ; all_controls_count_eight [untranslatable]

; expired_data_must_delete (matches Coq: Theorem expired_data_must_delete)
(assert (= true true)) ; expired_data_must_delete [untranslatable]

; expired_session_invalid (matches Coq: Theorem expired_session_invalid)
(assert (= true true)) ; expired_session_invalid [untranslatable]

; order_amount_positive (matches Coq: Theorem order_amount_positive)
(assert (= true true)) ; order_amount_positive [untranslatable]

; order_amount_bounded (matches Coq: Theorem order_amount_bounded)
(assert (= true true)) ; order_amount_bounded [untranslatable]

; inventory_bounded (matches Coq: Theorem inventory_bounded)
(assert (= true true)) ; inventory_bounded [untranslatable]

; Verify all assertions are satisfiable
(check-sat)
(exit)
